22
10
14 5 8 12 18 21 0 3 7 2 9 20 16
4 18 17 1
20 9 5 17
14 8 20 6 18 0 15 3 7 11 5 1 13 21 19
4 8 13 20 15 18 5 17 16 14 11 0
15 14 5 12
19 0 18 9 4 20 21 6 17 16 12 15 14 3 2 7 5 11 10 8 13
17 2 3 12 1 7 15 0 14 19 4 5 16 21 6 8 9 13 18 11 20
13 18 17 9 10 15 19 1 21 16 6 20 3 11 4 8 12 7 5 14 0
20 19 13 5 6 3 12 7 16 18 2 17 10 4 14 9 15 21 0 8
